%chk=C:\Users\Danny\Documents\Gaussian\project\gjf\cat\cat3_nme_isolated.chk
# hf/3-21g geom=connectivity

Title Card Required

0 1
 N                  0.72997773   -1.03096596    3.09379386
 H                  0.88101599   -0.96206512    2.10767008
 C                 -0.48408300   -0.28586013    3.45680054
 H                 -1.19111500   -0.95245850    3.90474291
 C                 -1.09939981    0.34063880    2.19169805
 H                 -2.02718432    0.81130973    2.44186755
 O                 -1.33041876   -0.68082540    1.21797267
 H                 -1.91923019   -0.34721431    0.53708741
 C                 -0.13061064    1.38976166    1.61516637
 C                  1.07313309    1.64198248    2.22537316
 C                 -0.49921528    2.09338318    0.44267294
 C                  1.96469910    2.61160746    1.68953926
 H                  1.36858906    1.10028260    3.13638369
 C                  0.34289747    3.03462742   -0.09552108
 H                 -1.46887171    1.87392493   -0.02798870
 C                  3.21750478    2.89318312    2.30052946
 C                  1.59589027    3.31691001    0.51492707
 H                  0.06464595    3.58612581   -1.00612195
 C                  4.05941781    3.83459098    1.76246230
 H                  3.49542111    2.34147192    3.21108313
 C                  2.48710605    4.28642838   -0.02084790
 C                  3.69090777    4.53835484    0.59026388
 H                  5.02899661    4.05425568    2.23326416
 H                  2.19166414    4.82797510   -0.93183649
 H                  4.38277250    5.28777161    0.17844537
 C                  1.88398227   -0.46482497    3.80699642
 H                  2.64472489   -0.20146455    3.10214752
 H                  1.57785907    0.40838111    4.34430428
 H                  2.26935221   -1.18930265    4.49367109
 H                 -0.23322935    0.48779927    4.15208723

 1 2 1.0 3 1.0 26 1.0
 2
 3 4 1.0 5 1.0 30 1.0
 4
 5 6 1.0 7 1.0 9 1.0
 6
 7 8 1.0
 8
 9 10 1.5 11 1.5
 10 12 1.5 13 1.0
 11 14 1.5 15 1.0
 12 16 1.5 17 1.5
 13
 14 17 1.5 18 1.0
 15
 16 19 1.5 20 1.0
 17 21 1.5
 18
 19 22 1.5 23 1.0
 20
 21 22 1.5 24 1.0
 22 25 1.0
 23
 24
 25
 26 27 1.0 28 1.0 29 1.0
 27
 28
 29
 30

