%chk=C:\Users\Danny\Documents\Gaussian\project\out\complex\oac_cat4_complex.chk
# hf/3-21g geom=connectivity

Title Card Required

0 1
 C                  0.99117461   -1.79673668    0.90995439
 C                  1.41361535   -3.04728495    0.34490051
 C                  1.28645580   -3.08008267   -1.11941006
 C                  0.72505307   -1.69955871   -1.49264700
 C                  0.57977162   -0.99698798   -0.20940624
 H                  1.79295783   -3.89812310    0.92417046
 H                  2.26475138   -3.28819122   -1.60626875
 H                  0.62640417   -3.91219731   -1.45002701
 H                  1.39190554   -1.14163772   -2.18650998
 H                 -0.24644687   -1.76567638   -2.03043037
 H                  0.19610451    0.02818667   -0.13729439
 O                  0.98333729   -1.47601739    2.10823991
 C                  1.36934817    1.67623449   -0.06862775
 C                  2.79487267    1.27190497   -0.45349825
 C                  3.05148410   -0.06655946    0.25818906
 H                  0.62532904    1.38716765   -0.85009299
 H                  1.27698811    2.78241076   -0.02401047
 H                  3.50355654    2.03749114   -0.02664562
 H                  4.12005485   -0.11013938    0.61243057
 C                  3.00524771    1.27378597   -1.95985381
 H                  2.51688446    2.16490716   -2.40708071
 H                  4.08829083    1.38269715   -2.18704452
 C                  2.48592528    0.01095338   -2.62145467
 H                  1.37972772   -0.09170837   -2.48984090
 H                  2.65764415    0.05607630   -3.71508738
 C                  2.77733811   -1.33179709   -0.56859739
 H                  1.69839597   -1.61915671   -0.54892656
 H                  3.30589422   -2.19680223   -0.11464577
 C                  3.20878196   -1.17979944   -2.01390554
 H                  2.96944555   -2.10570192   -2.57457965
 H                  4.30982111   -1.05547148   -2.09315249
 C                  1.11180088    1.01922323    1.29706824
 H                  1.35011045    1.77317917    2.10558116
 N                  2.18489728   -0.00153626    1.47651245
 H                  1.85692389   -0.89579014    1.76518610
 C                 -0.36115000    0.47685500    1.51074300
 O                 -0.43842700    0.31821700    2.91008000
 H                  0.03781305   -0.47626816    3.13114988
 C                 -1.44374620    1.49877569    1.11989607
 C                 -2.74597595    1.14759651    0.81604342
 C                 -1.11863346    2.88054634    1.19422024
 C                 -3.63219207    2.12873131    0.25978765
 C                 -1.99977373    3.85241421    0.79725615
 H                 -0.15835626    3.20492631    1.63362991
 C                 -4.87550674    1.75884587   -0.32418089
 C                 -3.26292501    3.48635995    0.25096349
 C                 -5.71114720    2.70905523   -0.85020032
 H                 -5.17837982    0.70111897   -0.39257203
 C                 -4.14895190    4.45620273   -0.28878695
 C                 -5.35123099    4.07344356   -0.82231167
 H                 -6.66874924    2.41602848   -1.30452362
 H                 -3.87547896    5.52408867   -0.28693873
 H                 -6.04058025    4.82145155   -1.23969054
 C                 -0.52944067   -0.81967458    0.70055401
 C                 -0.49511737   -2.11744117    1.18227459
 C                 -0.70045279   -0.61740594   -0.69843041
 C                 -0.58975164   -3.22020958    0.26592436
 C                 -0.78885916   -1.65370986   -1.58824216
 H                 -0.71392550    0.42425208   -1.09274745
 C                 -0.53499086   -4.57015874    0.71540293
 C                 -0.73383640   -2.99425035   -1.11634077
 C                 -0.61968285   -5.61748662   -0.16172574
 H                 -0.41664481   -4.78517445    1.79580383
 C                 -0.81713887   -4.09294279   -2.01396826
 C                 -0.76291671   -5.37818203   -1.54539074
 H                 -0.57457409   -6.65349026    0.20405851
 H                 -0.92352723   -3.92059628   -3.09760534
 H                 -0.82793369   -6.23010466   -2.23739394
 C                 -0.40663077   -2.42685227    2.63932068
 H                  0.45175028   -1.95198651    3.13467324
 H                 -1.32285283   -2.11295224    3.15972375
 H                 -0.29801638   -3.50112557    2.87388435
 C                 -0.89252621   -1.36680777   -3.04433771
 H                 -0.02747160   -1.78556790   -3.57862225
 H                 -1.79738421   -1.80646168   -3.48315322
 H                 -0.90764604   -0.29145686   -3.27342545
 C                 -3.31409408   -0.20726170    1.06702018
 H                 -3.37148185   -0.78580504    0.13398928
 H                 -2.75397170   -0.82418411    1.78458533
 H                 -4.32925686   -0.15236792    1.48722688
 C                 -1.63175749    5.28780403    0.92890674
 H                 -1.56495711    5.77059620   -0.05537590
 H                 -2.38638378    5.84119385    1.50381919
 H                 -0.66751067    5.44749424    1.43011993

 1 2 1.5 5 1.5 12 1.0
 2 3 1.0 6 1.0
 3 4 1.0 7 1.0 8 1.0
 4 5 1.0 9 1.0 10 1.0
 5 11 1.0
 6
 7
 8
 9
 10
 11
 12
 13 14 1.0 16 1.0 17 1.0 32 1.0
 14 15 1.0 18 1.0 20 1.0
 15 19 1.0 26 1.0 34 1.0
 16
 17
 18
 19
 20 21 1.0 22 1.0 23 1.0
 21
 22
 23 24 1.0 25 1.0 29 1.0
 24
 25
 26 27 1.0 28 1.0 29 1.0
 27
 28
 29 30 1.0 31 1.0
 30
 31
 32 33 1.0 34 1.0 36 1.0
 33
 34 35 1.0
 35
 36 37 1.0 39 1.0 54 1.0
 37 38 1.0
 38
 39 40 2.0 41 1.5
 40 42 1.5 77 1.0
 41 43 2.0 44 1.0
 42 45 1.5 46 1.5
 43 46 1.5 81 1.0
 44
 45 47 2.0 48 1.0
 46 49 1.5
 47 50 1.5 51 1.0
 48
 49 50 2.0 52 1.0
 50 53 1.0
 51
 52
 53
 54 55 2.0 56 1.5
 55 57 1.5 69 1.0
 56 58 2.0 59 1.0
 57 60 1.5 61 1.5
 58 61 1.5 73 1.0
 59
 60 62 2.0 63 1.0
 61 64 1.5
 62 65 1.5 66 1.0
 63
 64 65 2.0 67 1.0
 65 68 1.0
 66
 67
 68
 69 70 1.0 71 1.0 72 1.0
 70
 71
 72
 73 74 1.0 75 1.0 76 1.0
 74
 75
 76
 77 78 1.0 79 1.0 80 1.0
 78
 79
 80
 81 82 1.0 83 1.0 84 1.0
 82
 83
 84

