%chk=C:\Users\Danny\Documents\Gaussian\project\gjf\complex\oac_cat3_nocp_complex.chk
# hf/3-21g geom=connectivity

Title Card Required

0 2
 N                  2.76667011   -1.79378015    0.73215867
 H                  1.99685763   -1.50634339    1.28695581
 H                  3.59674684   -1.70812088    1.26654579
 C                  2.84346793   -0.98329129   -0.49498907
 H                  3.91291501   -0.92621635   -0.79965029
 H                  2.33866857   -1.54238032   -1.31489841
 C                  2.27070659    0.45039274   -0.40790699
 O                  2.65676402    0.95448832    0.85321598
 H                  1.98011831    1.57674290    1.10084585
 C                  0.77088784    0.56428740   -0.60209326
 C                 -0.09647117   -0.49666470   -0.59683958
 C                  0.27914171    1.88361759   -0.81312077
 C                 -1.48787387   -0.27454553   -0.79329329
 H                  0.23534904   -1.54048919   -0.45463073
 C                 -1.05543610    2.11511281   -1.00194156
 H                  0.98819358    2.72880699   -0.83507305
 C                 -2.39953677   -1.36390905   -0.78736007
 C                 -1.97001177    1.02829871   -0.99207253
 H                 -1.43468259    3.13714135   -1.16559814
 C                 -3.73770657   -1.13455909   -0.97416129
 H                 -2.01860568   -2.38653663   -0.63080352
 C                 -3.35953870    1.24509625   -1.18451324
 C                 -4.22205814    0.18014561   -1.17427381
 H                 -4.45106977   -1.97203143   -0.97021412
 H                 -3.72806052    2.27207399   -1.34015235
 H                 -5.30100361    0.33596331   -1.32171210
 C                 -0.03295259    0.83289464    1.36957791
 C                 -1.26022754    0.09028102    1.43230147
 C                 -2.44918837    0.95226131    1.36292704
 C                 -1.89003741    2.37834791    1.24480658
 C                 -0.42978212    2.20827007    1.25693960
 H                 -1.32613435   -1.00102913    1.52218139
 H                 -3.09942243    0.67685777    0.50342057
 H                 -3.09710593    0.82124627    2.25759367
 H                 -2.22993775    2.89417092    0.31970753
 H                 -2.22777057    3.03863060    2.07387697
 H                  0.26419596    3.05491262    1.18640981
 O                  1.12243921    0.38276025    1.40506440

 1 2 1.0 3 1.0 4 1.0
 2
 3
 4 5 1.0 6 1.0 7 1.0
 5
 6
 7 8 1.0 10 1.0
 8 9 1.0
 9
 10 11 2.0 12 1.5
 11 13 1.5 14 1.0
 12 15 2.0 16 1.0
 13 17 1.5 18 1.5
 14
 15 18 1.5 19 1.0
 16
 17 20 2.0 21 1.0
 18 22 1.5
 19
 20 23 1.5 24 1.0
 21
 22 23 2.0 25 1.0
 23 26 1.0
 24
 25
 26
 27 28 1.5 31 1.5 38 1.0
 28 29 1.0 32 1.0
 29 30 1.0 33 1.0 34 1.0
 30 31 1.0 35 1.0 36 1.0
 31 37 1.0
 32
 33
 34
 35
 36
 37
 38

