%chk=C:\Users\Danny\Documents\Gaussian\project\gjf\complex\oac_cat3_complex.chk
# hf/3-21g geom=connectivity

Title Card Required

0 1
 C                  0.73103502    2.61108850   -0.35156578
 C                  2.00801902    3.44888150   -0.24055478
 C                  2.89033602    2.61271150    0.69937822
 H                  0.85027902    1.82275250   -1.12616378
 H                 -0.13319298    3.21853450   -0.68629678
 H                  1.75862302    4.42816150    0.25728522
 H                  3.63324102    3.25852850    1.24303922
 C                  2.64220302    3.78851650   -1.57824878
 H                  1.86789002    4.18158250   -2.26903978
 H                  3.36814402    4.61813950   -1.43508578
 C                  3.36176702    2.61528250   -2.21986078
 H                  2.64204902    1.82583350   -2.52732978
 H                  3.86215902    2.94414150   -3.15224978
 C                  3.63841602    1.49356950   -0.03721578
 H                  2.93439302    0.69260350   -0.37462678
 H                  4.35026302    0.99219850    0.65104022
 C                  4.37759902    2.05170250   -1.23917578
 H                  4.97774202    1.25406250   -1.71992278
 H                  5.10236902    2.83513950   -0.93111478
 C                  0.54815202    2.04678950    1.07004822
 H                 -0.03549598    2.78735050    1.69218022
 N                  1.91132002    2.06739950    1.69135822
 H                  2.20447202    1.19860050    2.07738122
 C                 -0.17435398    0.66103550    1.13598422
 O                 -0.28937998    0.40559550    2.52516522
 H                  0.56947637   -0.09720340    2.42739491
 C                 -1.59739098    0.68039450    0.57344022
 C                 -2.22271898   -0.52798650    0.35193522
 C                 -2.32498998    1.88280450    0.38831122
 C                 -3.56163098   -0.57327850   -0.11223378
 H                 -1.69880198   -1.48704550    0.52311422
 C                 -3.62157698    1.85715350   -0.05761478
 H                 -1.88227498    2.86523950    0.61617522
 C                 -4.20215198   -1.81708950   -0.36346078
 C                 -4.26364998    0.62284750   -0.32710678
 H                 -4.18146098    2.79532850   -0.20272978
 C                 -5.49457998   -1.83791050   -0.81575078
 H                 -3.64735898   -2.75337650   -0.19134078
 C                 -5.60347198    0.57900650   -0.79704678
 C                 -6.20114198   -0.62995550   -1.03518178
 H                 -5.99943698   -2.79454050   -1.01371178
 H                 -6.14621998    1.52327950   -0.96257678
 H                 -7.23787498   -0.67681850   -1.39872578
 C                  0.65521302   -0.41942450    0.44130722
 C                  1.55651302   -1.17864150    1.15248622
 C                  0.49817902   -0.64574350   -0.95312078
 C                  2.34359902   -2.16023850    0.49351422
 H                  1.70609502   -1.05070850    2.24175822
 C                  1.25317402   -1.58433050   -1.60449578
 H                 -0.25359898   -0.07122850   -1.52274078
 C                  3.28210602   -2.94163650    1.22004422
 C                  2.19968202   -2.36093350   -0.88781078
 H                  1.13000202   -1.74996450   -2.68699878
 C                  4.03785302   -3.87980650    0.56777722
 H                  3.39269902   -2.78171050    2.30477122
 C                  2.99275002   -3.33798650   -1.54535378
 C                  3.89271202   -4.07956750   -0.82633678
 H                  4.76742502   -4.48879050    1.12120522
 H                  2.87269602   -3.48686050   -2.63032478
 H                  4.51288602   -4.83885250   -1.32451778
 C                  3.30494524   -0.71808216    1.30396617
 C                  2.74634112   -0.48237783    0.00242173
 C                  3.54170237   -1.08934948   -1.07481390
 C                  4.71550051   -1.77132298   -0.35548413
 C                  4.48966856   -1.49516755    1.07075474
 H                  1.82772165    0.08564388   -0.18959274
 H                  2.93469176   -1.80455722   -1.67265903
 H                  3.87823400   -0.32505123   -1.80965070
 H                  4.75970876   -2.86494224   -0.55412059
 H                  5.70332049   -1.38549112   -0.69125202
 H                  5.16620735   -1.85380071    1.85628714
 O                  2.85952410   -0.33296895    2.39579871

 1 2 1.0 4 1.0 5 1.0 20 1.0
 2 3 1.0 6 1.0 8 1.0
 3 7 1.0 14 1.0 22 1.0
 4
 5
 6
 7
 8 9 1.0 10 1.0 11 1.0
 9
 10
 11 12 1.0 13 1.0 17 1.0
 12
 13
 14 15 1.0 16 1.0 17 1.0
 15
 16
 17 18 1.0 19 1.0
 18
 19
 20 21 1.0 22 1.0 24 1.0
 21
 22 23 1.0
 23
 24 25 1.0 27 1.0 44 1.0
 25 26 1.0
 26
 27 28 2.0 29 1.5
 28 30 1.5 31 1.0
 29 32 2.0 33 1.0
 30 34 1.5 35 1.5
 31
 32 35 1.5 36 1.0
 33
 34 37 2.0 38 1.0
 35 39 1.5
 36
 37 40 1.5 41 1.0
 38
 39 40 2.0 42 1.0
 40 43 1.0
 41
 42
 43
 44 45 2.0 46 1.5
 45 47 1.5 48 1.0
 46 49 2.0 50 1.0
 47 51 1.5 52 1.5
 48
 49 52 1.5 53 1.0
 50
 51 54 2.0 55 1.0
 52 56 1.5
 53
 54 57 1.5 58 1.0
 55
 56 57 2.0 59 1.0
 57 60 1.0
 58
 59
 60
 61 62 1.5 65 1.5 72 1.0
 62 63 1.0 66 1.0
 63 64 1.0 67 1.0 68 1.0
 64 65 1.0 69 1.0 70 1.0
 65 71 1.0
 66
 67
 68
 69
 70
 71
 72

