%chk=C:\Users\Danny\Documents\Gaussian\project\gjf\indole.chk
# hf/3-21g geom=connectivity

Title Card Required

0 1
 C                  4.94852600   -1.83058360    0.00021645
 C                  3.46345400   -1.83058360    0.00021645
 C                  2.77419400   -0.57230160    0.00021645
 C                  3.48433800    0.58281240    0.00021645
 C                  4.92764200    0.58281240    0.00021645
 C                  5.63778600   -0.57230160    0.00021645
 C                  5.39140300   -3.12212160    0.00021645
 H                  1.67461600   -0.57987960    0.00021645
 H                  2.97818900    1.55980240    0.00021645
 H                  5.43379100    1.55980240    0.00021645
 H                  6.41648300   -3.48471060    0.00021645
 C                  4.20599000   -4.05163260    0.00021645
 H                  4.20598419   -5.13894983    0.00130274
 C                  1.95546042   -3.02030646   -0.00755271
 H                  1.69103055   -2.01803690    0.25783864
 H                  1.58328978   -3.24008450   -0.98637171
 H                  1.52694481   -3.70098291    0.69810580
 N                  3.02057700   -3.12212160    0.00021645
 F                  6.98775394   -0.58160522    0.00021645

 1 2 2.0 6 1.0 7 1.0
 2 3 1.0 18 1.0
 3 4 2.0 8 1.0
 4 5 1.0 9 1.0
 5 6 2.0 10 1.0
 6 19 1.0
 7 11 1.0 12 2.0
 8
 9
 10
 11
 12 13 1.0 18 1.0
 13
 14 15 1.0 16 1.0 17 1.0 18 1.0
 15
 16
 17
 18
 19

