%mem=1GB
#p opt freq=noraman pddg

Isolated Indole

0 1
 C                  0.39236200    0.95624600    0.00711700
 C                 -0.14066300   -0.35719800   -0.03753800
 C                 -0.71065300    1.87950400    0.00814100
 H                 -0.62442300    2.96848200    0.03451000
 C                 -1.87599900    1.13780400   -0.03378100
 H                 -2.91347000    1.49813900   -0.03911400
 N                 -1.53824300   -0.22937300   -0.11457600
 H                  1.35643941    1.09107961    0.02871199
 H                  0.43275277   -1.14411442   -0.04450926
 H                 -2.18846711   -0.97493897    0.03150611

