%nprocshared=5
%mem=4GB
#p opt=modredundant freq=noraman b3lyp/6-31g empiricaldispersion=gd3bj

TS Freeze

0 1
 N                 -0.89158000    3.12650000   -1.64314800
 H                  0.04017500    2.73155200   -1.49236900
 H                 -0.94263700    3.70649300   -2.47343600
 C                 -1.44822500    3.76511900   -0.44509900
 H                 -1.11152600    4.80602400   -0.30687300
 H                 -2.54610000    3.79264900   -0.51735900
 O                  0.35690300    3.19591100    1.14177900
 H                  0.86883300    2.58454700    0.53259800
 C                 -1.44345100    1.56145500    0.91202600
 C                 -2.32757500    0.96242700    0.03380900
 C                 -0.84127200    0.76937700    1.92961800
 C                 -2.65519800   -0.41939000    0.14062700
 H                 -2.74681200    1.53413900   -0.78449800
 C                 -1.12621700   -0.57405000    2.05387300
 H                 -0.12507100    1.25052900    2.58499900
 C                 -3.55101300   -1.05297500   -0.76412200
 C                 -2.04469000   -1.20932000    1.17222200
 H                 -0.65719900   -1.16558400    2.83559000
 C                 -3.82885800   -2.40339800   -0.66180600
 H                 -4.01124900   -0.45323500   -1.54383000
 C                 -2.35442400   -2.59506000    1.25617200
 C                 -3.22541400   -3.18270000    0.35851800
 H                 -4.51447700   -2.87289400   -1.35961300
 H                 -1.89540600   -3.18509800    2.04483500
 H                 -3.45483900   -4.24057400    0.43252600
 C                  0.93891200    0.30984500   -0.88357800
 C                  0.00834400   -0.13801000   -1.84026300
 C                 -0.13308900   -1.61975100   -1.88290100
 C                  0.73554600   -2.10691400   -0.69194600
 C                  1.37067900   -0.86249500   -0.16870600
 H                 -0.56695500    0.54867700   -2.44955200
 H                 -1.17789700   -1.93816500   -1.77088400
 H                  0.20969800   -2.03304800   -2.84498300
 H                  0.09789200   -2.56112300    0.07809700
 H                  1.47141600   -2.86923400   -0.97271300
 H                  1.87051700   -0.81877600    0.78873800
 O                  1.34603000    1.53363100   -0.66932100
 C                 -1.05691300    3.03317000    0.84845700
 H                 -1.56426000    3.55570100    1.67060500
 C                  3.74201200   -1.07119200   -0.94663800
 C                  3.93452000    0.22313100   -0.45990600
 C                  4.22343600   -1.98559400    0.05415300
 H                  4.24700800   -3.06191500   -0.01721700
 C                  4.63238400   -1.23532000    1.13716200
 H                  5.04319700   -1.52952300    2.08861000
 N                  4.44749500    0.10765500    0.80986200
 H                  3.40971700   -1.32161900   -1.94112400
 H                  3.61960200    1.16981700   -0.86340900
 H                  4.62451900    0.88511400    1.42458100

B 30 40 F

