%nprocshared=5
%mem=4GB
#p opt=modredundant freq=noraman b3lyp/6-31g empiricaldispersion=gd3bj

TS Scan

0 1
 C                  1.50149600    1.09103600   -0.90394500
 C                  1.45537800   -0.34835900   -0.75003600
 C                  0.75715200   -1.00328300   -1.89265900
 C                  0.53677300    0.14457600   -2.91516100
 C                  0.96864800    1.36607400   -2.17277700
 H                  1.58733000   -0.83886400    0.20021000
 H                  1.30726800   -1.85695400   -2.30259100
 H                 -0.20568600   -1.40053600   -1.53699200
 H                  1.12459800   -0.00876300   -3.83407000
 H                 -0.51285500    0.19992300   -3.23638000
 H                  0.84892600    2.37480500   -2.55184200
 O                  1.96606700    1.92568500   -0.01003600
 N                  0.19002700    4.23779000   -0.43480100
 H                  1.07559500    3.73392200   -0.38120100
 H                  0.19790100    5.05714900    0.16392900
 C                 -0.94875500    3.36270000   -0.20180500
 H                 -1.86448300    3.94938500   -0.32375700
 H                 -0.95710500    2.60006000   -0.98794600
 O                  0.25418600    2.75224600    1.90874100
 H                  0.99257700    2.45922500    1.29639800
 C                 -1.40403300    1.15088600    1.05332500
 C                 -2.53999100    0.74407200    0.36005300
 C                 -0.54863200    0.17068200    1.62410300
 C                 -2.74861700   -0.65872200    0.11723100
 C                 -0.74620100   -1.18620500    1.46941500
 H                  0.28559800    0.53666200    2.20893400
 C                 -3.82744500   -1.12807800   -0.68676900
 C                 -1.84181900   -1.63355300    0.66452600
 C                 -4.00524500   -2.47338800   -0.94616400
 H                 -4.51569300   -0.41231300   -1.11891000
 C                 -2.05770300   -3.01197100    0.38361200
 C                 -3.11230200   -3.42769300   -0.40543900
 H                 -4.83170100   -2.80043800   -1.56881600
 H                 -1.37637200   -3.74606900    0.79838700
 H                 -3.25843000   -4.48314200   -0.61067800
 C                 -3.57869000    1.73485600   -0.12247700
 H                 -3.47926300    2.69452600    0.38622000
 H                 -3.50906100    1.92663700   -1.20095600
 H                 -4.59002700    1.36688800    0.07972700
 C                  0.19916900   -2.17282900    2.11370500
 H                 -0.32877900   -2.86829400    2.77773000
 H                  0.73402800   -2.77960900    1.36982000
 H                  0.94963000   -1.64543200    2.70974100
 C                 -0.99936000    2.62232200    1.20565400
 H                 -1.72650800    3.13651500    1.84625400
 C                  3.73225800   -2.29715800   -0.51396900
 C                  3.87847800   -2.24314900    0.85522700
 C                  3.78889900   -0.94497700   -1.00843800
 H                  3.79588100   -0.63844500   -2.04186000
 C                  4.04518300   -0.10990600    0.08668300
 H                  4.06436700    0.96495400    0.14866900
 N                  4.06443200   -0.90401700    1.20523400
 H                  3.58100700   -3.18882700   -1.10192700
 H                  3.87782300   -3.02155700    1.59971100
 H                  4.16235300   -0.55885400    2.14616900

B 2 48 F

