%chk=C:\Users\Danny\Documents\Gaussian\project\gjf\ts\oac_methyl_indole_ts.chk
# hf/3-21g geom=connectivity

Title Card Required

0 1
 C                  0.22804622   -3.70268848    2.91062025
 C                 -1.16154611   -3.98597690    2.91568949
 C                 -1.64960778   -5.29480348    2.79860204
 C                 -0.71265364   -6.30349271    2.67897680
 C                  0.67001664   -6.03187024    2.66964088
 C                  1.15467104   -4.74219627    2.78196646
 C                  0.38809847   -2.27992197    3.04906601
 H                 -2.72883183   -5.51017884    2.80278558
 H                 -1.04884502   -7.34625065    2.58797148
 H                  1.37284792   -6.87111092    2.56980505
 H                  2.23345533   -4.53187056    2.77108235
 H                  1.34342274   -1.75015892    3.07572446
 C                 -0.87427406   -1.72426178    3.13604293
 H                 -1.14690836   -0.66704314    3.25510225
 C                 -3.24502315   -2.59432172    3.31455196
 H                 -3.83265834   -3.43226895    2.90791162
 H                 -3.44353733   -2.55739903    4.39758876
 H                 -3.64279132   -1.66526666    2.88054496
 N                 -1.83035582   -2.75287864    3.00324634
 C                  0.79697748   -0.10963545   -0.26389422
 C                 -0.07481352    1.03123855   -0.26389422
 C                 -1.49699252    0.65860255   -0.26388922
 C                 -1.49709852   -0.87773245   -0.26385722
 C                 -0.07496152   -1.25048645   -0.26391422
 H                  0.26240048    2.07510955   -0.26388322
 H                 -2.02728852    1.08486855    0.61615978
 H                 -2.02729252    1.08483055   -1.14394722
 H                 -2.02735852   -1.30390345    0.61626578
 H                 -2.02752752   -1.30395345   -1.14384322
 H                  0.26214648   -2.29439345   -0.26396722
 O                  2.03746548   -0.10966645   -0.26385822

 1 2 1.5 6 1.5 7 1.5
 2 3 1.5 19 1.0
 3 4 2.0 8 1.0
 4 5 1.5 9 1.0
 5 6 2.0 10 1.0
 6 11 1.0
 7 12 1.0 13 2.0
 8
 9
 10
 11
 12
 13 14 1.0 19 1.0
 14
 15 16 1.0 17 1.0 18 1.0 19 1.0
 16
 17
 18
 19
 20 21 1.5 24 1.5 31 1.0
 21 22 1.0 25 1.0
 22 23 1.0 26 1.0 27 1.0
 23 24 1.0 28 1.0 29 1.0
 24 30 1.0
 25
 26
 27
 28
 29
 30
 31

