%nprocshared=4
%mem=3GB
#p opt freq=noraman b3lyp/6-31g scrf=(solvent=perfluorobenzene,pcm)
empiricaldispersion=gd3bj

Solvated Isolated

0 1
 C                  0.78415887   -0.05894607    0.38496790
 C                 -0.11866413    1.07163993    0.38505390
 C                 -1.55227213    0.71448593    0.38476890
 C                 -1.55225713   -0.83231207    0.38529390
 C                 -0.11863513   -1.18953707    0.38484790
 H                  0.23547387    2.09755093    0.38544790
 H                 -2.08063413    1.12767093    1.25871590
 H                 -2.08039413    1.12712693   -0.48962810
 H                 -2.08015713   -1.24507807    1.25975790
 H                 -2.08082413   -1.24530307   -0.48860910
 H                  0.23539087   -2.21549307    0.38414790
 O                  2.05635787   -0.05888407    0.38505490
 C                  0.53169318    1.38943983   -2.28915660
 C                  1.90833452    1.25095212   -2.31702308
 C                  0.23144804    2.77261745   -2.51044442
 H                 -0.75079378    3.21865698   -2.54896337
 C                  1.43295494    3.44110194   -2.66745705
 H                  1.64536411    4.48173193   -2.85004172
 N                  2.44951719    2.50628040   -2.54807074
 H                 -0.18133358    0.59507215   -2.12918917
 H                  2.53515981    0.38309714   -2.19445014
 H                  3.43294524    2.70837584   -2.61893049

