%chk=C:\Users\Danny\Documents\Gaussian\project\gjf\ts\oac_methyl_indole_ts.chk
# hf/3-21g geom=connectivity

Title Card Required

0 1
 C                  0.19497051   -3.62915737    2.67397880
 C                 -1.19462182   -3.91244579    2.67904804
 C                 -1.68268349   -5.22127237    2.56196059
 C                 -0.74572935   -6.22996160    2.44233535
 C                  0.63694093   -5.95833913    2.43299943
 C                  1.12159533   -4.66866516    2.54532501
 C                  0.35502276   -2.20639086    2.81242456
 H                 -2.76190754   -5.43664773    2.56614413
 H                 -1.08192073   -7.27271954    2.35133003
 H                  1.33977221   -6.79757981    2.33316360
 H                  2.20037962   -4.45833945    2.53444090
 H                  1.31034703   -1.67662781    2.83908301
 C                 -0.90734977   -1.65073067    2.89940148
 H                 -1.17998407   -0.59351203    3.01846080
 C                 -3.27809886   -2.52079061    3.07791051
 H                 -3.86573405   -3.35873784    2.67127017
 H                 -3.47661304   -2.48386792    4.16094731
 H                 -3.67586703   -1.59173555    2.64390351
 N                 -1.86343153   -2.67934753    2.76660489
 C                  0.83005319   -0.18316656   -0.02725277
 C                 -0.04173781    0.95770744   -0.02725277
 C                 -1.46391681    0.58507144   -0.02724777
 C                 -1.46402281   -0.95126356   -0.02721577
 C                 -0.04188581   -1.32401756   -0.02727277
 H                  0.29547619    2.00157844   -0.02724177
 H                 -1.99421281    1.01133744    0.85280123
 H                 -1.99421681    1.01129944   -0.90730577
 H                 -1.99428281   -1.37743456    0.85290723
 H                 -1.99445181   -1.37748456   -0.90720177
 H                  0.29522219   -2.36792456   -0.02732577
 O                  2.07054119   -0.18319756   -0.02721677

 1 2 1.5 6 1.5 7 1.5
 2 3 1.5 19 1.0
 3 4 2.0 8 1.0
 4 5 1.5 9 1.0
 5 6 2.0 10 1.0
 6 11 1.0
 7 12 1.0 13 2.0
 8
 9
 10
 11
 12
 13 14 1.0 19 1.0
 14
 15 16 1.0 17 1.0 18 1.0 19 1.0
 16
 17
 18
 19
 20 21 1.5 24 1.5 31 1.0
 21 22 1.0 25 1.0
 22 23 1.0 26 1.0 27 1.0
 23 24 1.0 28 1.0 29 1.0
 24 30 1.0
 25
 26
 27
 28
 29
 30
 31

