%nprocshared=5
%mem=4GB
#p opt=modredundant freq=noraman b3lyp/6-31g empiricaldispersion=gd3bj

TS Freeze

0 1
 C                  1.14165800   -1.48625600   -1.19388100
 C                 -0.33557300   -1.14190100   -1.23668400
 C                 -0.50937400   -0.49086700   -2.63177500
 C                  0.93488400   -0.12416700   -3.10396700
 C                  1.83270400   -0.95677600   -2.21292700
 H                 -0.57449100   -0.43935900   -0.43581300
 H                 -0.95117700   -1.21284700   -3.33009300
 H                 -1.16738000    0.38095300   -2.58956000
 H                  1.07997500   -0.32862800   -4.17167100
 H                  1.12631300    0.95010400   -2.96189000
 H                  2.90444400   -1.03462400   -2.34384000
 O                  1.65483200   -2.19890100   -0.11605700
 N                  4.38524100   -0.60567300   -0.00435400
 H                  3.83393100   -1.43968800   -0.18184800
 H                  5.05778300   -0.77168900    0.73668800
 C                  3.57722400    0.59036300    0.19496900
 H                  4.25086300    1.45279400    0.22025700
 H                  2.93843900    0.70071500   -0.68131100
 O                  2.70537400   -0.69701000    2.13489000
 H                  2.41116100   -1.35764500    1.45935300
 C                  1.21561600    1.03831000    1.25569600
 C                  0.82932500    2.06503500    0.39848400
 C                  0.21757500    0.32689000    1.98131000
 C                 -0.57264800    2.26338400    0.13601700
 C                 -1.13337000    0.55996400    1.83786600
 H                  0.56498700   -0.42149400    2.68189800
 C                 -1.02279800    3.17838500   -0.86010600
 C                 -1.56369600    1.51008000    0.85631300
 C                 -2.36626500    3.34202500   -1.13774400
 H                 -0.29454000    3.74476100   -1.42710500
 C                 -2.93945100    1.71503300    0.55808700
 C                 -3.33725600    2.60637900   -0.41847600
 H                 -2.67903900    4.03723000   -1.91010200
 H                 -3.68495100    1.14982400    1.10528500
 H                 -4.39130300    2.74394300   -0.63674100
 C                  1.81942500    3.01880500   -0.23885900
 H                  2.78468200    2.99400300    0.26581800
 H                  1.99725100    2.80216200   -1.30017400
 H                  1.45045800    4.04777800   -0.17395400
 C                 -2.13360400   -0.18837200    2.68478500
 H                 -2.73300500    0.49589600    3.29885600
 H                 -2.83279000   -0.77045100    2.07259800
 H                 -1.62075700   -0.88030000    3.35872600
 C                  2.67205400    0.60993100    1.49618100
 H                  3.12897800    1.27406400    2.23912700
 C                 -3.07992800   -2.85723700    0.34712600
 C                 -1.83835800   -3.29872900    0.99316300
 C                 -2.74214700   -2.31161000   -0.84520600
 H                 -3.39915900   -1.88071000   -1.58733800
 C                 -1.22764000   -2.41858900   -1.00379100
 H                 -0.99819500   -3.11783200   -1.82374500
 N                 -0.78111800   -3.07825500    0.26316600
 H                 -4.06937800   -2.96518000    0.76791000
 H                 -1.76630600   -3.75752000    1.97141000
 H                  0.89254200   -2.74197900    0.27542700

B 2 48 F

