%mem=3GB
%nprocshared=4
#p opt=modredundant pddg

TS Scan

0 1
 C                  1.12715400   -0.74707800   -0.47341900
 C                  1.68106800    0.53622000   -0.25603900
 C                  2.96440200    0.70771500    0.26821100
 C                  3.67614800   -0.44390800    0.56849600
 C                  3.13497000   -1.72190000    0.35361900
 C                  1.86033800   -1.89119100   -0.16708000
 C                 -0.22296300   -0.58093500   -1.00031900
 H                  3.39987200    1.70453000    0.43926600
 H                  4.69116100   -0.35702600    0.98395500
 H                  3.74063600   -2.60558600    0.60431500
 H                  1.43330500   -2.89150900   -0.33585600
 H                 -0.68413400   -1.31153200   -1.70026600
 C                 -0.40991400    0.82508900   -1.13362100
 H                 -1.34844700    1.30980700   -1.46767500
 C                  0.76264400    2.91600200   -0.42284100
 H                  1.75179100    3.23666000   -0.05907500
 H                  0.54022100    3.50797600   -1.32433900
 H                  0.01922900    3.20328000    0.34283600
 N                  0.72006300    1.48472500   -0.70049900
 C                 -2.80391500   -0.80306100   -0.18439000
 C                 -3.28497900    0.42024700    0.32503800
 C                 -2.36237500    1.01782900    1.31350400
 C                 -1.33952300   -0.09219400    1.61369700
 C                 -1.51471500   -1.07170800    0.50038900
 H                 -4.26702700    0.84461100    0.10658900
 H                 -1.85536000    1.91279100    0.87482300
 H                 -2.87923000    1.38291400    2.22334800
 H                 -0.29637300    0.27405900    1.71277400
 H                 -1.56144200   -0.58910800    2.58181300
 H                 -1.10865300   -2.09490100    0.61492900
 O                 -3.27825300   -1.54335000   -1.06567700

B 7 24 S 40 -0.030000

