%mem=3GB
%nprocshared=4
#p opt freq=noraman b3lyp/6-31g empiricaldispersion=gd3bj

Complex

0 1
 C                  0.79586000   -1.54840800    0.22339500
 C                  1.75207200   -1.19335100    1.21966100
 C                  3.07323700   -0.80733300    0.66414800
 C                  2.86795300   -0.88401700   -0.87029600
 C                  1.43660700   -1.23895000   -1.02042500
 H                  1.53594400   -1.23880600    2.28068800
 H                  3.35413000    0.20944800    0.97011600
 H                  3.88003500   -1.46648300    1.01937500
 H                  3.11189900    0.06394300   -1.36387400
 H                  3.51668200   -1.64385900   -1.33492800
 H                  0.91924300   -1.31204200   -1.96971700
 O                 -0.40025400   -2.00600400    0.39057600
 N                 -2.87718100   -0.74425600    1.31384100
 H                 -3.62771500   -1.22250900    1.79498800
 H                 -2.05780100   -1.32991600    1.16186800
 C                 -3.30684700    0.05559900    0.16243900
 H                 -4.12896100   -0.41645000   -0.39930500
 H                 -3.67649500    1.03575200    0.50495700
 O                 -1.82055700   -0.91382700   -1.57150000
 H                 -1.37621800   -1.52063000   -0.90780200
 C                 -0.95123100    1.01978500   -0.35029400
 C                 -0.69902300    1.25560500    1.00794800
 C                  0.02196000    1.40264700   -1.29239400
 C                  0.50345700    1.85371000    1.41153400
 H                 -1.42427600    0.91337300    1.73845000
 C                  1.20367500    2.04250400   -0.89318900
 H                 -0.16781200    1.21462000   -2.34439000
 C                  1.45129400    2.26629300    0.46404700
 H                  0.68706700    2.02293600    2.46827900
 H                  1.92297200    2.36461300   -1.64052200
 H                  2.36481900    2.76015800    0.78123700
 C                 -2.19700900    0.30896800   -0.86925800
 H                 -2.63877300    0.93598500   -1.65281600
 C                  1.85111102   -4.41604866   -1.63214989
 C                  0.48800107   -4.78609928   -1.50471897
 C                  2.18622396   -4.44376691   -3.03071326
 H                  3.16719540   -4.20948348   -3.45120145
 C                  1.05178240   -4.82007604   -3.72450101
 H                  0.92504532   -4.94259942   -4.80854048
 C                 -1.38109309   -5.23516830   -3.16046533
 H                 -1.95622034   -5.67310419   -2.32964174
 H                 -1.86351200   -4.27852621   -3.41707353
 H                 -1.49327635   -5.89816256   -4.03085515
 N                  0.02175494   -5.08239063   -2.79713141
 H                  0.04741370   -4.83251387   -0.63764334
 H                  2.37486409   -4.20255068   -0.83956360

