%chk=C:\Users\Danny\Documents\Gaussian\project\gjf\ts\oac_methyl_indole_ts.chk
# hf/3-21g geom=connectivity

Title Card Required

0 1
 C                 -0.92618972   -5.66449097    1.89140839
 C                 -2.31578205   -5.94777939    1.89647763
 C                 -2.80384372   -7.25660597    1.77939018
 C                 -1.86688958   -8.26529520    1.65976494
 C                 -0.48421930   -7.99367273    1.65042902
 C                  0.00043510   -6.70399876    1.76275460
 C                 -0.76613747   -4.24172446    2.02985415
 H                 -3.88306777   -7.47198133    1.78357372
 H                 -2.20308096   -9.30805314    1.56875962
 H                  0.21861198   -8.83291341    1.55059319
 H                  1.07921939   -6.49367305    1.75187049
 H                  0.18918680   -3.71196141    2.05651260
 C                 -2.02851000   -3.68606427    2.11683107
 H                 -2.30114430   -2.62884563    2.23589039
 C                 -4.39925909   -4.55612421    2.29534010
 H                 -4.98689428   -5.39407144    1.88869976
 H                 -4.59777327   -4.51920152    3.37837690
 H                 -4.79702726   -3.62706915    1.86133310
 N                 -2.98459176   -4.71468113    1.98403448
 C                  0.85586867   -0.24055732    0.15744502
 C                 -0.01592233    0.90031668    0.15744502
 C                 -1.43810133    0.52768068    0.15745002
 C                 -1.43820733   -1.00865432    0.15748202
 C                 -0.01607033   -1.38140832    0.15742502
 H                  0.32129167    1.94418768    0.15745602
 H                 -1.96839733    0.95394668    1.03749902
 H                 -1.96840133    0.95390868   -0.72260798
 H                 -1.96846733   -1.43482532    1.03760502
 H                 -1.96863633   -1.43487532   -0.72250398
 H                  0.32103767   -2.42531532    0.15737202
 O                  2.09635667   -0.24058832    0.15748102

 1 2 1.5 6 1.5 7 1.5
 2 3 1.5 19 1.0
 3 4 2.0 8 1.0
 4 5 1.5 9 1.0
 5 6 2.0 10 1.0
 6 11 1.0
 7 12 1.0 13 2.0
 8
 9
 10
 11
 12
 13 14 1.0 19 1.0
 14
 15 16 1.0 17 1.0 18 1.0 19 1.0
 16
 17
 18
 19
 20 21 1.5 24 1.5 31 1.0
 21 22 1.0 25 1.0
 22 23 1.0 26 1.0 27 1.0
 23 24 1.0 28 1.0 29 1.0
 24 30 1.0
 25
 26
 27
 28
 29
 30
 31

