%mem=3GB
%nprocshared=4
#p opt freq=noraman b3lyp/6-31g empiricaldispersion=gd3bj

Complex

0 1
 C                  0.94528700    1.62160300    1.06929400
 C                 -0.24870300    2.35555100    0.77724200
 C                 -1.39145100    2.00319700    1.65197000
 C                 -0.86330200    0.80850100    2.48803300
 C                  0.54646600    0.66332600    2.05273500
 H                 -0.27765300    3.14741800    0.03840200
 H                 -1.68519200    2.84969600    2.29306200
 H                 -2.29010500    1.73462800    1.07903700
 H                 -0.94886300    0.98184500    3.57145400
 H                 -1.44738300   -0.10233900    2.28244700
 H                  1.22969500   -0.06336200    2.47612000
 O                  2.10648800    1.77199000    0.52376500
 N                  4.09814100   -0.31591600    0.92762000
 H                  3.66316400    0.59080200    1.09862300
 H                  4.92860900   -0.21935100    0.35268800
 C                  3.14207000   -1.26741500    0.38914400
 H                  3.63377400   -2.24264100    0.29880500
 H                  2.34171800   -1.38170400    1.12254600
 O                  3.14423800    0.28588400   -1.55941700
 H                  2.93898200    1.02144800   -0.92027100
 C                  0.98144800   -0.70513500   -0.99189500
 C                  0.11018300   -1.57079200   -0.32696100
 C                  0.45261600    0.41967200   -1.67259200
 C                 -1.28853600   -1.23414400   -0.24330400
 C                 -0.88646000    0.76360700   -1.64463400
 H                  1.15431900    1.03393500   -2.22007900
 C                 -2.19906800   -2.02137200    0.51545800
 C                 -1.79556100   -0.06545300   -0.90610000
 C                 -3.53849500   -1.68360500    0.61836800
 H                 -1.83605300   -2.90061600    1.03319500
 C                 -3.17802300    0.24104400   -0.80188600
 C                 -4.03619300   -0.54630700   -0.05260200
 H                 -4.20813200   -2.29869900    1.21020900
 H                 -3.56590200    1.10953400   -1.32157300
 H                 -5.08867500   -0.29276700    0.01679600
 C                  0.55907700   -2.91433000    0.21227200
 H                  1.55679900   -3.17734100   -0.13724700
 H                  0.57492300   -2.95097500    1.30865900
 H                 -0.12164900   -3.70274400   -0.12804700
 C                 -1.38667100    1.94752800   -2.43862300
 H                 -2.05814200    1.63182100   -3.24751200
 H                 -1.94658100    2.65863300   -1.81866100
 H                 -0.54876000    2.48478900   -2.89019000
 C                  2.50202500   -0.89459900   -1.02389100
 H                  2.74804500   -1.68884800   -1.73874400
 C                  0.47747884    5.09706610    1.55064192
 C                  1.56440344    5.59274534    0.78635017
 C                  0.92013743    3.90631588    2.22533871
 H                  0.30854160    3.29075667    2.88944820
 C                  2.24003300    3.69410372    1.87498273
 H                  2.91025612    2.88706796    2.20011359
 N                  2.62848621    4.69002136    0.95463928
 H                 -0.37713355    5.56362129    1.54318478
 H                  1.48695593    6.39940407    0.24653978
 H                  3.57701029    4.87101452    0.69474787

