%chk=C:\Users\Danny\Documents\Gaussian\project\gjf\oac_cat1_freeze.chk
# hf/3-21g geom=connectivity

Title Card Required

0 1
 C                  0.41776400    2.08134800   -0.99029400
 C                  0.38713600    1.75250700    0.51846700
 C                  2.69632000    1.83243300   -0.16939300
 C                  1.87997700    2.33166700   -1.36349000
 H                 -0.02614300    1.26180300   -1.60900400
 H                 -0.21366100    2.96548900   -1.22147900
 H                 -0.27353000    2.50225800    1.05370300
 H                  3.62831700    2.41591300   -0.01120400
 H                  3.00989400    0.77381700   -0.31665800
 H                  2.07160900    3.40439000   -1.57266100
 H                  2.16306900    1.80526000   -2.29688200
 N                  1.79346800    1.86513400    1.00710800
 H                  1.92374000    2.68502200    1.54862400
 C                 -0.16460900    0.32201000    0.83879900
 O                 -0.25364800    0.29713400    2.25007400
 H                 -0.51487400   -0.58887700    2.48711800
 C                 -1.57807400    0.07483000    0.30192000
 C                 -2.07196700   -1.23374600    0.36556200
 C                 -2.41515400    1.09079400   -0.15400700
 C                 -3.36643400   -1.52239500   -0.04873700
 H                 -1.43445700   -2.05337000    0.73958900
 C                 -3.71252400    0.79762300   -0.57016700
 H                 -2.09193900    2.14289300   -0.19421600
 C                 -4.19068600   -0.50596800   -0.52338000
 H                 -3.73879800   -2.55588400    0.00066700
 H                 -4.36250500    1.60731500   -0.93263200
 H                 -5.21439700   -0.73300000   -0.85360200
 C                  0.76795500   -0.75133600    0.28440200
 C                  1.66234500   -1.43454700    1.10983700
 C                  0.72899400   -1.05633000   -1.07894600
 C                  2.48278600   -2.42690000    0.57861400
 H                  1.76125100   -1.18857300    2.18025500
 C                  1.54858600   -2.04789900   -1.60481400
 H                  0.05799900   -0.47468100   -1.74460500
 C                  2.42306400   -2.74240800   -0.77407800
 H                  3.18443300   -2.96050100    1.23597500
 H                  1.50423800   -2.28128600   -2.67810200
 H                  3.06779300   -3.53110000   -1.18700700
 C                  0.91071884    2.63660466    4.74039622
 C                  0.48294973    1.78702373    5.81596065
 C                  0.96062254    2.24818490    7.12768081
 C                  1.76910223    3.51860543    6.82318529
 C                  1.68373683    3.67378114    5.36371537
 H                 -0.13315456    0.88757128    5.69438460
 H                  0.11352953    2.43852082    7.82310043
 H                  1.56909364    1.46703921    7.63459777
 H                  1.37052970    4.41385628    7.34956892
 H                  2.82613444    3.44240124    7.16122442
 H                  2.16638450    4.50068303    4.82830139
 O                  0.66509879    2.50317348    3.53181135

 1 2 1.0 4 1.0 5 1.0 6 1.0
 2 7 1.0 12 1.0 14 1.0
 3 4 1.0 8 1.0 9 1.0 12 1.0
 4 10 1.0 11 1.0
 5
 6
 7
 8
 9
 10
 11
 12 13 1.0
 13
 14 15 1.0 17 1.0 28 1.0
 15 16 1.0
 16
 17 18 1.5 19 1.5
 18 20 1.5 21 1.0
 19 22 1.5 23 1.0
 20 24 1.5 25 1.0
 21
 22 24 1.5 26 1.0
 23
 24 27 1.0
 25
 26
 27
 28 29 1.5 30 1.5
 29 31 1.5 32 1.0
 30 33 1.5 34 1.0
 31 35 1.5 36 1.0
 32
 33 35 1.5 37 1.0
 34
 35 38 1.0
 36
 37
 38
 39 40 1.5 43 1.5 50 2.0
 40 41 1.0 44 1.0
 41 42 1.0 45 1.0 46 1.0
 42 43 1.0 47 1.0 48 1.0
 43 49 1.0
 44
 45
 46
 47
 48
 49
 50

