%chk=C:\Users\Danny\Documents\Gaussian\project\gjf\oxyallyl_isolated.chk
# hf/3-21g geom=connectivity

Title Card Required

0 1
 C                  2.07722091    0.44146255    0.00141399
 C                  1.13311139    0.53674098    1.22002527
 C                  2.55395964   -1.38440921    1.53977906
 C                  3.10252315   -0.64968231    0.31471882
 H                  1.52268351    0.22001812   -0.94460934
 H                  2.57370497    1.41470266   -0.19897715
 H                  1.64213442    1.54018553    1.35814946
 H                  3.35572933   -1.76843596    2.20594712
 H                  1.94855802   -2.26842215    1.23532303
 H                  4.10862708   -0.22334362    0.50759227
 H                  3.24545451   -1.33902299   -0.54134549
 N                  1.64022286   -0.44046231    2.22855699
 H                  1.63821254   -0.05279877    3.14077388
 C                 -0.40409508    0.75310360    1.42868842
 O                 -0.49064448    1.41843911    2.67371120
 H                  0.04891229    0.92057292    3.28235899
 C                 -1.04064030    1.67894341    0.38712654
 C                 -2.43769600    1.77075304    0.37455303
 C                 -0.30313184    2.49017921   -0.47236922
 C                 -3.08218431    2.63408231   -0.50288878
 H                 -3.04391729    1.15155466    1.05806441
 C                 -0.95274442    3.35398099   -1.35223129
 H                  0.79816847    2.48478330   -0.48264190
 C                 -2.33998727    3.42647338   -1.37412992
 H                 -4.18034203    2.69094144   -0.50633344
 H                 -0.35997100    3.98608190   -2.02937635
 H                 -2.84841771    4.10848023   -2.07050587
 C                 -1.14220268   -0.58262674    1.41751225
 C                 -1.55449470   -1.19554856    2.60174019
 C                 -1.40968134   -1.20834838    0.19678105
 C                 -2.24865797   -2.40230197    2.55736291
 H                 -1.31824148   -0.76146573    3.58755803
 C                 -2.10348332   -2.41189313    0.15682931
 H                 -1.03313524   -0.74900198   -0.74069730
 C                 -2.53254684   -3.00850520    1.33883411
 H                 -2.57008376   -2.87834345    3.49503663
 H                 -2.31164218   -2.89082280   -0.81047603
 H                 -3.08663669   -3.95735332    1.30895780
 C                  1.64795680    0.58801312    5.49323677
 C                  1.22018769   -0.26156781    6.56880120
 C                  1.69786050    0.19959336    7.88052136
 C                  2.50634019    1.47001389    7.57602584
 C                  2.42097479    1.62518960    6.11655592
 H                  0.60408340   -1.16102026    6.44722515
 H                  0.85076749    0.38992928    8.57594098
 H                  2.30633160   -0.58155233    8.38743832
 H                  2.10776766    2.36526474    8.10240947
 H                  3.56337240    1.39380970    7.91406497
 H                  2.90362246    2.45209149    5.58114194
 O                  1.40233675    0.45458194    4.28465190

 1 2 1.0 4 1.0 5 1.0 6 1.0
 2 7 1.0 12 1.0 14 1.0
 3 4 1.0 8 1.0 9 1.0 12 1.0
 4 10 1.0 11 1.0
 5
 6
 7
 8
 9
 10
 11
 12 13 1.0
 13
 14 15 1.0 17 1.0 28 1.0
 15 16 1.0
 16
 17 18 1.5 19 1.5
 18 20 1.5 21 1.0
 19 22 1.5 23 1.0
 20 24 1.5 25 1.0
 21
 22 24 1.5 26 1.0
 23
 24 27 1.0
 25
 26
 27
 28 29 1.5 30 1.5
 29 31 1.5 32 1.0
 30 33 1.5 34 1.0
 31 35 1.5 36 1.0
 32
 33 35 1.5 37 1.0
 34
 35 38 1.0
 36
 37
 38
 39 40 1.5 43 1.5 50 1.0
 40 41 1.0 44 1.0
 41 42 1.0 45 1.0 46 1.0
 42 43 1.0 47 1.0 48 1.0
 43 49 1.0
 44
 45
 46
 47
 48
 49
 50

